n_res = 4;
rc = [ 0, 0, 0, 0 ];
n_tasks = 30;
d = [ 10, 2, 8, 5, 8, 8, 1, 3, 1, 9, 10, 1, 6, 9, 7, 3, 9, 9, 2, 5, 2, 8, 2, 6, 10, 9, 2, 3, 4, 4 ];
rr = [| 0, 0, 0, 0, 0, 0, 0, 0, 0, 0, 0, 0, 0, 0, 0, 0, 0, 0, 0, 0, 0, 0, 0, 0, 0, 0, 0, 0, 0, 0
      | 0, 0, 0, 0, 0, 0, 0, 0, 0, 0, 0, 0, 0, 0, 0, 0, 0, 0, 0, 0, 0, 0, 0, 0, 0, 0, 0, 0, 0, 0
      | 0, 0, 0, 0, 0, 0, 0, 0, 0, 0, 0, 0, 0, 0, 0, 0, 0, 0, 0, 0, 0, 0, 0, 0, 0, 0, 0, 0, 0, 0
      | 0, 0, 0, 0, 0, 0, 0, 0, 0, 0, 0, 0, 0, 0, 0, 0, 0, 0, 0, 0, 0, 0, 0, 0, 0, 0, 0, 0, 0, 0 |];
suc = [ { 4, 14, 18 },
       { 5, 10, 25 },
       { 8, 13, 20 },
       { 6, 7, 19 },
       { 9, 17, 21 },
       { 11 },
       { 10 },
       { 29 },
       { 15, 30 },
       { 12 },
       { 16, 21 },
       { 22 },
       { 24 },
       { 16, 23 },
       { 26 },
       { 27, 30 },
       { 29 },
       { 20 },
       { 26 },
       { 25 },
       { 22 },
       { 23, 28 },
       { 27 },
       { 27 },
       { 26 },
       { 28 },
       { 29 },
       {  },
       {  },
       {  } ];
